100
75
60
60
57
57
56
56
55
55
54
54
54
53
51
51
51
50
50
49
49
49
49
49
49
48
48
47
47
47
45
45
44
44
44
44
43
43
41
40
39
39
38
38
37
37
37
37
36
35
35
34
34
34
34
31
31
31
30
29
29
29
29
29
28
28
27
26
26
26
26
26
25
25
24
24
24
23
22
22
22
21
21
21
21
21
20
19
19
19
18
18
17
17
17
16
16
16
16
15
15
15
